c "121958.clq"
p edge 150 584
e 1 5
e 1 6
e 1 8
e 1 14
e 1 81
e 1 147
e 2 5
e 2 6
e 2 7
e 2 8
e 2 9
e 2 10
e 2 11
e 2 13
e 2 15
e 2 19
e 2 23
e 2 26
e 2 32
e 2 34
e 2 39
e 2 44
e 2 47
e 2 53
e 2 62
e 2 64
e 2 67
e 2 86
e 2 91
e 2 98
e 2 99
e 2 114
e 2 118
e 2 123
e 2 124
e 2 125
e 2 132
e 3 5
e 3 7
e 3 11
e 3 14
e 3 15
e 3 16
e 3 17
e 3 24
e 3 25
e 3 30
e 3 31
e 3 38
e 3 42
e 3 44
e 3 66
e 3 75
e 3 90
e 3 91
e 3 100
e 3 112
e 3 119
e 3 144
e 4 5
e 4 6
e 4 7
e 4 8
e 4 10
e 4 12
e 4 13
e 4 16
e 4 18
e 4 20
e 4 23
e 4 24
e 4 26
e 4 31
e 4 33
e 4 35
e 4 37
e 4 39
e 4 40
e 4 43
e 4 46
e 4 53
e 4 58
e 4 59
e 4 64
e 4 65
e 4 68
e 4 70
e 4 82
e 4 93
e 4 96
e 4 99
e 4 102
e 4 104
e 4 122
e 4 140
e 4 142
e 4 145
e 5 6
e 5 7
e 5 8
e 5 9
e 5 10
e 5 11
e 5 16
e 5 19
e 5 21
e 5 23
e 5 24
e 5 25
e 5 29
e 5 33
e 5 37
e 5 40
e 5 43
e 5 44
e 5 46
e 5 48
e 5 52
e 5 55
e 5 60
e 5 63
e 5 69
e 5 70
e 5 77
e 5 78
e 5 79
e 5 80
e 5 81
e 5 84
e 5 85
e 5 88
e 5 89
e 5 90
e 5 92
e 5 96
e 5 103
e 5 108
e 5 123
e 5 125
e 5 131
e 5 137
e 5 138
e 5 148
e 6 9
e 6 12
e 6 13
e 6 15
e 6 22
e 6 29
e 6 31
e 6 33
e 6 35
e 6 42
e 6 45
e 6 47
e 6 51
e 6 54
e 6 56
e 6 57
e 6 76
e 6 82
e 6 102
e 6 107
e 6 121
e 6 144
e 7 11
e 7 19
e 7 22
e 7 26
e 7 72
e 7 79
e 7 109
e 8 9
e 8 10
e 8 12
e 8 20
e 8 21
e 8 30
e 8 34
e 8 36
e 8 39
e 8 42
e 8 45
e 8 47
e 8 84
e 8 97
e 8 101
e 8 126
e 8 137
e 9 13
e 9 38
e 9 40
e 9 65
e 9 66
e 9 72
e 9 80
e 9 88
e 9 102
e 9 117
e 9 121
e 9 127
e 10 12
e 10 18
e 10 21
e 10 30
e 10 41
e 10 46
e 10 51
e 10 61
e 10 64
e 10 69
e 10 105
e 10 136
e 10 142
e 11 14
e 11 17
e 11 19
e 11 26
e 11 29
e 11 34
e 11 49
e 11 51
e 11 57
e 11 59
e 11 64
e 11 112
e 11 119
e 12 15
e 12 17
e 12 21
e 12 22
e 12 23
e 12 28
e 12 36
e 12 43
e 12 48
e 12 50
e 12 72
e 12 93
e 12 95
e 12 107
e 12 145
e 12 150
e 13 14
e 13 18
e 13 42
e 13 55
e 13 56
e 13 78
e 13 83
e 13 106
e 13 116
e 14 16
e 14 20
e 14 32
e 14 41
e 14 43
e 14 45
e 14 49
e 14 54
e 14 63
e 14 69
e 14 74
e 14 76
e 14 79
e 14 85
e 14 124
e 14 125
e 14 128
e 15 38
e 15 40
e 15 56
e 15 59
e 15 93
e 16 17
e 16 18
e 16 28
e 16 65
e 16 67
e 16 113
e 16 140
e 17 27
e 17 71
e 17 73
e 17 81
e 17 132
e 17 145
e 18 25
e 18 52
e 18 70
e 18 73
e 18 116
e 19 20
e 19 22
e 19 24
e 19 28
e 19 35
e 19 37
e 19 49
e 19 61
e 19 86
e 19 98
e 19 103
e 19 104
e 19 118
e 19 126
e 19 132
e 19 137
e 20 27
e 20 34
e 20 113
e 20 135
e 20 141
e 21 28
e 21 29
e 21 32
e 21 82
e 22 25
e 22 27
e 22 30
e 22 60
e 22 78
e 22 106
e 22 107
e 22 124
e 22 130
e 22 138
e 23 27
e 23 31
e 23 50
e 23 65
e 23 103
e 23 108
e 23 110
e 23 130
e 24 35
e 24 52
e 24 53
e 24 62
e 24 76
e 24 87
e 24 99
e 24 114
e 24 128
e 24 133
e 24 149
e 25 50
e 25 87
e 26 37
e 26 56
e 26 58
e 26 83
e 26 85
e 26 113
e 26 117
e 26 121
e 26 133
e 27 33
e 27 41
e 27 55
e 27 68
e 27 79
e 27 94
e 27 114
e 27 133
e 27 135
e 27 139
e 28 36
e 28 44
e 28 63
e 28 77
e 28 105
e 29 32
e 29 39
e 29 57
e 29 58
e 29 76
e 29 93
e 29 110
e 29 111
e 29 122
e 29 127
e 29 149
e 30 66
e 30 87
e 30 129
e 30 132
e 31 51
e 31 69
e 31 75
e 31 91
e 31 109
e 32 36
e 32 46
e 32 48
e 32 52
e 32 88
e 32 111
e 32 146
e 33 38
e 33 60
e 33 67
e 33 77
e 33 127
e 33 145
e 34 74
e 34 83
e 34 143
e 35 68
e 37 45
e 37 63
e 37 66
e 37 92
e 37 111
e 38 41
e 38 50
e 38 62
e 38 75
e 38 81
e 38 114
e 38 118
e 38 147
e 39 48
e 39 54
e 40 60
e 40 113
e 41 91
e 41 100
e 41 115
e 41 122
e 41 126
e 41 131
e 42 59
e 42 110
e 42 135
e 44 47
e 44 49
e 44 55
e 44 57
e 44 61
e 44 67
e 44 72
e 44 88
e 44 92
e 44 107
e 44 144
e 45 95
e 45 143
e 46 97
e 46 103
e 47 53
e 47 135
e 48 54
e 48 61
e 48 68
e 48 71
e 48 84
e 48 89
e 48 120
e 48 131
e 48 146
e 49 126
e 50 62
e 50 70
e 50 94
e 50 98
e 50 111
e 50 118
e 50 120
e 50 148
e 51 58
e 51 104
e 51 115
e 51 123
e 51 130
e 51 142
e 53 95
e 53 130
e 54 77
e 54 85
e 54 87
e 54 110
e 54 139
e 54 149
e 55 78
e 55 82
e 55 100
e 56 119
e 57 71
e 57 73
e 57 90
e 57 96
e 57 104
e 57 106
e 57 140
e 57 143
e 57 147
e 58 150
e 60 150
e 61 108
e 61 143
e 62 80
e 62 138
e 63 105
e 63 120
e 64 71
e 65 73
e 65 80
e 65 83
e 66 86
e 66 102
e 66 124
e 66 149
e 68 112
e 68 146
e 69 75
e 70 74
e 70 96
e 70 112
e 71 74
e 71 89
e 71 101
e 71 109
e 71 134
e 73 92
e 73 127
e 75 99
e 76 115
e 76 128
e 77 84
e 78 97
e 78 105
e 78 120
e 78 121
e 78 148
e 78 150
e 79 101
e 81 89
e 82 86
e 82 94
e 83 117
e 84 95
e 84 100
e 84 109
e 85 90
e 86 101
e 86 117
e 88 94
e 88 108
e 88 123
e 90 97
e 93 116
e 93 134
e 93 136
e 94 119
e 94 129
e 94 141
e 95 122
e 97 98
e 97 136
e 97 144
e 98 128
e 98 142
e 99 106
e 100 116
e 100 134
e 100 136
e 101 134
e 102 138
e 104 129
e 106 139
e 107 115
e 109 131
e 111 125
e 112 129
e 112 137
e 117 133
e 122 139
e 123 141
e 125 147
e 129 140
e 129 141
e 130 148
e 139 146
